job_count = 22 ;
duration = [|17, 1|16, 3|5, 2|5, 8|16, 3|17, 5|6, 9|4, 5|8, 9|10, 7|18, 8|7, 2|13, 5|15, 1|12, 6|15, 8|16, 5|19, 1|3, 3|6, 4|3, 3|3, 7|] ;
machine_count = 2 ;
cost = [|16, 34|16, 33|10, 22|10, 30|15, 24|18, 34|17, 38|16, 38|15, 22|15, 23|14, 37|18, 23|11, 39|16, 29|18, 22|15, 32|13, 32|12, 29|10, 37|13, 24|17, 20|17, 39|] ;
deadline = [55, 55, 55, 55, 55, 55, 55, 55, 55, 55, 55, 55, 55, 55, 55, 55, 55, 55, 55, 55, 55, 55] ;
release = [0, 0, 0, 0, 0, 0, 0, 0, 0, 0, 0, 0, 0, 0, 0, 0, 0, 0, 0, 0, 0, 0] ;
resource = [|3, 3|7, 7|6, 6|4, 4|6, 6|4, 4|8, 8|6, 6|9, 9|2, 2|7, 7|9, 9|4, 4|5, 5|9, 9|3, 3|9, 9|1, 1|7, 7|7, 7|7, 7|7, 7|] ;
capacities = [10, 10] ;
